NAME          COPTPROB
OBJSENSE
  MIN
ROWS
 N  __OBJ___
 L  C0      
 L  C2      
 L  C3      
 L  C6      
 L  C7      
 L  C11     
 L  C12     
 L  C14     
 L  C19     
 L  C22     
 L  C26     
 L  C27     
 L  C30     
 L  C31     
 L  C32     
 L  C33     
 L  C34     
 L  C36     
 L  C38     
 L  C40     
 L  C42     
 L  C43     
 L  C47     
 L  C48     
 L  C51     
 L  C53     
 L  C55     
 L  C58     
 L  C61     
 L  C63     
 L  C65     
 L  C68     
 L  C69     
 L  C70     
 L  C73     
 L  C74     
 L  C75     
 L  C77     
 L  C78     
 L  C80     
 L  C81     
 L  C82     
 L  C83     
 L  C84     
 L  C85     
 L  C86     
 L  C87     
 L  C88     
 L  C89     
 L  C90     
 L  C95     
 L  C96     
 L  C97     
 L  C98     
 L  C99     
 L  C100    
 L  C102    
 L  C103    
 L  C104    
 L  C105    
 L  C108    
 L  C109    
 L  C111    
 L  C113    
 L  C115    
 L  C117    
 L  C121    
 L  C125    
 L  C126    
 L  C127    
 L  C128    
 L  C133    
 L  C139    
 L  C140    
 L  C141    
 L  C144    
 L  C145    
 L  C152    
 L  C153    
 L  C156    
 L  C159    
 L  C161    
 L  C162    
 L  C164    
 L  C167    
 L  C169    
 L  C171    
 L  C172    
 L  C173    
 L  C175    
 L  C178    
 L  C180    
 L  C181    
 L  C182    
 L  C186    
 L  C187    
 L  C188    
 L  C191    
 L  C195    
 L  C196    
 L  C197    
 L  C198    
 L  C201    
 L  C202    
 L  C205    
 L  C213    
 L  C215    
 L  C216    
 L  C218    
 L  C221    
 L  C226    
 L  C228    
 L  C231    
 L  C232    
 L  C235    
 L  C237    
 L  C238    
 L  C239    
 L  C240    
 L  C243    
 L  C244    
 L  C245    
 L  C246    
 L  C247    
 L  C248    
 L  C249    
 L  C251    
 L  C256    
 L  C257    
 L  C259    
 L  C260    
 L  C264    
 L  C270    
 L  C273    
 L  C274    
 L  C276    
 L  C278    
 L  C279    
 L  C280    
 L  C281    
 L  C282    
 L  C283    
 L  C290    
 L  C292    
 L  C293    
 L  C294    
 L  C295    
 L  C296    
 L  C298    
 L  C301    
 L  C303    
 L  C305    
 L  C308    
 L  C309    
 L  C310    
 L  C312    
 L  C314    
 L  C315    
 L  C318    
 L  C319    
 L  C320    
 L  C326    
 L  C328    
 L  C330    
 L  C331    
 L  C332    
 L  C334    
 L  C338    
 L  C339    
 L  C342    
 L  C343    
 L  C344    
 L  C345    
 L  C346    
 L  C347    
 L  C348    
 L  C349    
 L  C351    
 L  C353    
 L  C354    
 L  C355    
 L  C357    
 L  C358    
 L  C361    
 L  C363    
 L  C364    
 L  C366    
 L  C369    
 L  C370    
 L  C371    
 L  C373    
 L  C374    
 L  C375    
 L  C376    
 L  C378    
 L  C379    
 L  C383    
 L  C384    
 L  C386    
 L  C387    
 L  C390    
 L  C393    
 L  C395    
 L  C396    
 L  C397    
 L  C398    
 L  C399    
COLUMNS
    MARKER    'MARKER'                 'INTORG'
    x114      __OBJ___  10
    x114      C19       -1
    x114      C374      -1
    x126      __OBJ___  3
    x126      C292      -1
    x126      C293      -1
    x126      C309      -1
    x126      C375      -1
    x126      C383      -1
    x136      __OBJ___  27
    x136      C47       -1
    x136      C240      -1
    x136      C396      -1
    x153      __OBJ___  28
    x153      C96       -1
    x153      C312      -1
    x153      C374      -1
    x186      __OBJ___  1
    x186      C0        -1
    x186      C235      -1
    x223      __OBJ___  21
    x223      C0        -1
    x223      C213      -1
    x240      __OBJ___  58
    x240      C113      -1
    x240      C127      -1
    x240      C370      -1
    x267      __OBJ___  19
    x267      C78       -1
    x267      C180      -1
    x273      __OBJ___  88
    x273      C12       -1
    x273      C98       -1
    x273      C126      -1
    x273      C239      -1
    x280      __OBJ___  22
    x280      C105      -1
    x280      C133      -1
    x280      C345      -1
    x351      __OBJ___  46
    x351      C247      -1
    x351      C274      -1
    x351      C290      -1
    x362      __OBJ___  17
    x362      C187      -1
    x362      C373      -1
    x364      __OBJ___  71
    x364      C12       -1
    x364      C14       -1
    x364      C73       -1
    x386      __OBJ___  25
    x386      C201      -1
    x386      C260      -1
    x386      C363      -1
    x388      __OBJ___  76
    x388      C2        -1
    x388      C51       -1
    x388      C197      -1
    x393      __OBJ___  8
    x393      C105      -1
    x393      C260      -1
    x409      __OBJ___  7
    x409      C278      -1
    x409      C315      -1
    x431      __OBJ___  22
    x431      C36       -1
    x431      C238      -1
    x431      C318      -1
    x458      __OBJ___  59
    x458      C108      -1
    x458      C280      -1
    x458      C387      -1
    x486      __OBJ___  3
    x486      C141      -1
    x495      __OBJ___  31
    x495      C104      -1
    x495      C109      -1
    x495      C240      -1
    x506      __OBJ___  59
    x506      C14       -1
    x506      C53       -1
    x506      C186      -1
    x506      C213      -1
    x506      C361      -1
    x625      __OBJ___  9
    x625      C244      -1
    x625      C353      -1
    x627      __OBJ___  49
    x627      C88       -1
    x627      C213      -1
    x638      __OBJ___  27
    x638      C99       -1
    x638      C153      -1
    x638      C270      -1
    x638      C281      -1
    x638      C363      -1
    x645      __OBJ___  40
    x645      C61       -1
    x645      C74       -1
    x645      C115      -1
    x645      C198      -1
    x655      __OBJ___  2
    x655      C27       -1
    x655      C314      -1
    x655      C355      -1
    x673      __OBJ___  43
    x673      C186      -1
    x673      C216      -1
    x673      C256      -1
    x744      __OBJ___  37
    x744      C73       -1
    x744      C290      -1
    x744      C292      -1
    x744      C348      -1
    x767      __OBJ___  7
    x767      C70       -1
    x767      C111      -1
    x767      C133      -1
    x767      C370      -1
    x784      __OBJ___  28
    x784      C364      -1
    x784      C387      -1
    x785      __OBJ___  26
    x785      C80       -1
    x785      C111      -1
    x785      C347      -1
    x800      __OBJ___  47
    x800      C7        -1
    x800      C244      -1
    x800      C248      -1
    x800      C393      -1
    x850      __OBJ___  13
    x850      C58       -1
    x850      C399      -1
    x891      __OBJ___  35
    x891      C30       -1
    x891      C63       -1
    x898      __OBJ___  64
    x898      C40       -1
    x898      C259      -1
    x898      C278      -1
    x979      __OBJ___  15
    x979      C293      -1
    x979      C344      -1
    x979      C393      -1
    x987      __OBJ___  41
    x987      C14       -1
    x987      C19       -1
    x987      C390      -1
    x1012     __OBJ___  16
    x1012     C84       -1
    x1012     C221      -1
    x1037     __OBJ___  39
    x1037     C68       -1
    x1037     C117      -1
    x1037     C395      -1
    x1046     __OBJ___  19
    x1046     C228      -1
    x1046     C264      -1
    x1046     C354      -1
    x1077     __OBJ___  43
    x1077     C53       -1
    x1077     C58       -1
    x1077     C182      -1
    x1077     C232      -1
    x1077     C264      -1
    x1077     C344      -1
    x1123     __OBJ___  147
    x1123     C14       -1
    x1123     C32       -1
    x1123     C68       -1
    x1123     C232      -1
    x1123     C239      -1
    x1123     C248      -1
    x1123     C318      -1
    x1146     __OBJ___  120
    x1146     C74       -1
    x1146     C78       -1
    x1146     C121      -1
    x1146     C128      -1
    x1146     C197      -1
    x1146     C239      -1
    x1146     C248      -1
    x1151     __OBJ___  36
    x1151     C140      -1
    x1151     C161      -1
    x1151     C245      -1
    x1155     __OBJ___  8
    x1155     C53       -1
    x1155     C144      -1
    x1155     C246      -1
    x1155     C280      -1
    x1186     __OBJ___  40
    x1186     C61       -1
    x1186     C100      -1
    x1186     C232      -1
    x1186     C375      -1
    x1266     __OBJ___  9
    x1266     C42       -1
    x1266     C172      -1
    x1266     C175      -1
    x1266     C221      -1
    x1266     C315      -1
    x1292     __OBJ___  25
    x1292     C55       -1
    x1292     C309      -1
    x1292     C314      -1
    x1292     C386      -1
    x1304     __OBJ___  20
    x1304     C202      -1
    x1304     C228      -1
    x1412     __OBJ___  16
    x1412     C345      -1
    x1412     C378      -1
    x1412     C383      -1
    x1436     __OBJ___  2
    x1436     C139      -1
    x1441     __OBJ___  103
    x1441     C34       -1
    x1441     C156      -1
    x1441     C167      -1
    x1441     C213      -1
    x1446     __OBJ___  37
    x1446     C2        -1
    x1446     C139      -1
    x1446     C164      -1
    x1446     C245      -1
    x1458     __OBJ___  82
    x1458     C73       -1
    x1458     C139      -1
    x1458     C345      -1
    x1458     C364      -1
    x1478     __OBJ___  26
    x1478     C48       -1
    x1478     C228      -1
    x1495     __OBJ___  1
    x1495     C205      -1
    x1531     __OBJ___  71
    x1531     C86       -1
    x1531     C103      -1
    x1531     C117      -1
    x1531     C249      -1
    x1533     __OBJ___  5
    x1533     C274      -1
    x1533     C379      -1
    x1559     __OBJ___  61
    x1559     C2        -1
    x1559     C78       -1
    x1559     C98       -1
    x1559     C128      -1
    x1559     C196      -1
    x1697     __OBJ___  2
    x1697     C283      -1
    x1697     C339      -1
    x1743     __OBJ___  44
    x1743     C205      -1
    x1743     C334      -1
    x1829     __OBJ___  26
    x1829     C34       -1
    x1856     __OBJ___  49
    x1856     C26       -1
    x1856     C245      -1
    x1856     C398      -1
    x1886     __OBJ___  62
    x1886     C48       -1
    x1886     C104      -1
    x1886     C180      -1
    x1892     __OBJ___  42
    x1892     C216      -1
    x1892     C351      -1
    x1892     C397      -1
    x1917     __OBJ___  21
    x1917     C30       -1
    x1917     C140      -1
    x1917     C232      -1
    x1917     C274      -1
    x1917     C393      -1
    x1960     __OBJ___  9
    x1960     C75       -1
    x1960     C97       -1
    x1960     C172      -1
    x2070     __OBJ___  19
    x2070     C70       -1
    x2070     C169      -1
    x2070     C196      -1
    x2070     C201      -1
    x2106     __OBJ___  28
    x2106     C43       -1
    x2106     C126      -1
    x2106     C294      -1
    x2109     __OBJ___  50
    x2109     C125      -1
    x2109     C127      -1
    x2109     C202      -1
    x2109     C374      -1
    x2140     __OBJ___  15
    x2140     C376      -1
    x2154     __OBJ___  13
    x2154     C144      -1
    x2154     C172      -1
    x2154     C191      -1
    x2154     C237      -1
    x2178     __OBJ___  73
    x2178     C32       -1
    x2178     C77       -1
    x2178     C85       -1
    x2178     C186      -1
    x2178     C249      -1
    x2178     C331      -1
    x2178     C332      -1
    x2190     __OBJ___  5
    x2190     C90       -1
    x2190     C237      -1
    x2190     C282      -1
    x2194     __OBJ___  3
    x2194     C69       -1
    x2194     C86       -1
    x2194     C305      -1
    x2195     __OBJ___  1
    x2195     C257      -1
    x2195     C361      -1
    x2277     __OBJ___  19
    x2277     C36       -1
    x2277     C98       -1
    x2277     C102      -1
    x2277     C109      -1
    x2308     __OBJ___  24
    x2308     C11       -1
    x2308     C68       -1
    x2308     C133      -1
    x2312     __OBJ___  10
    x2312     C53       -1
    x2312     C99       -1
    x2312     C235      -1
    x2325     __OBJ___  11
    x2325     C296      -1
    x2325     C326      -1
    x2326     __OBJ___  16
    x2326     C74       -1
    x2334     __OBJ___  53
    x2334     C58       -1
    x2334     C74       -1
    x2334     C83       -1
    x2334     C145      -1
    x2392     __OBJ___  33
    x2392     C31       -1
    x2392     C61       -1
    x2392     C103      -1
    x2392     C127      -1
    x2429     __OBJ___  24
    x2429     C40       -1
    x2429     C83       -1
    x2429     C97       -1
    x2429     C216      -1
    x2429     C320      -1
    x2433     __OBJ___  19
    x2433     C87       -1
    x2433     C281      -1
    x2433     C320      -1
    x2433     C373      -1
    x2446     __OBJ___  22
    x2446     C82       -1
    x2446     C141      -1
    x2446     C280      -1
    x2451     __OBJ___  117
    x2451     C80       -1
    x2451     C152      -1
    x2451     C276      -1
    x2489     __OBJ___  68
    x2489     C58       -1
    x2489     C167      -1
    x2523     __OBJ___  29
    x2523     C95       -1
    x2523     C320      -1
    x2559     __OBJ___  2
    x2559     C87       -1
    x2559     C89       -1
    x2559     C243      -1
    x2607     __OBJ___  16
    x2607     C3        -1
    x2607     C89       -1
    x2607     C347      -1
    x2617     __OBJ___  7
    x2617     C182      -1
    x2617     C303      -1
    x2617     C373      -1
    x2617     C398      -1
    x2632     __OBJ___  121
    x2632     C43       -1
    x2632     C47       -1
    x2632     C167      -1
    x2632     C338      -1
    x2638     __OBJ___  1
    x2638     C36       -1
    x2638     C195      -1
    x2638     C243      -1
    x2680     __OBJ___  30
    x2680     C181      -1
    x2680     C187      -1
    x2680     C198      -1
    x2680     C354      -1
    x2712     __OBJ___  56
    x2712     C2        -1
    x2712     C338      -1
    x2751     __OBJ___  38
    x2751     C226      -1
    x2751     C259      -1
    x2765     __OBJ___  3
    x2765     C256      -1
    x2765     C281      -1
    x2785     __OBJ___  6
    x2785     C159      -1
    x2785     C164      -1
    x2785     C173      -1
    x2785     C328      -1
    x2788     __OBJ___  5
    x2788     C344      -1
    x2788     C358      -1
    x2837     __OBJ___  11
    x2837     C102      -1
    x2837     C240      -1
    x2876     __OBJ___  45
    x2876     C48       -1
    x2876     C139      -1
    x2876     C197      -1
    x2876     C231      -1
    x2876     C296      -1
    x2876     C375      -1
    x2897     __OBJ___  26
    x2897     C87       -1
    x2897     C310      -1
    x2897     C331      -1
    x2928     __OBJ___  34
    x2928     C113      -1
    x2928     C274      -1
    x2928     C339      -1
    x2943     __OBJ___  43
    x2943     C34       -1
    x2943     C65       -1
    x2943     C156      -1
    x2943     C273      -1
    x2955     __OBJ___  85
    x2955     C144      -1
    x2955     C249      -1
    x2955     C334      -1
    x2955     C397      -1
    x3026     __OBJ___  68
    x3026     C144      -1
    x3026     C186      -1
    x3026     C187      -1
    x3026     C246      -1
    x3080     __OBJ___  41
    x3080     C108      -1
    x3080     C178      -1
    x3080     C246      -1
    x3080     C320      -1
    x3080     C349      -1
    x3080     C378      -1
    x3123     __OBJ___  27
    x3123     C244      -1
    x3123     C318      -1
    x3123     C398      -1
    x3145     __OBJ___  7
    x3145     C98       -1
    x3145     C173      -1
    x3145     C398      -1
    x3214     __OBJ___  57
    x3214     C295      -1
    x3216     __OBJ___  1
    x3216     C303      -1
    x3217     __OBJ___  41
    x3217     C109      -1
    x3217     C141      -1
    x3217     C387      -1
    x3254     __OBJ___  5
    x3254     C169      -1
    x3254     C281      -1
    x3273     __OBJ___  112
    x3273     C51       -1
    x3273     C61       -1
    x3273     C152      -1
    x3273     C353      -1
    x3273     C387      -1
    x3347     __OBJ___  26
    x3347     C7        -1
    x3347     C61       -1
    x3347     C330      -1
    x3347     C353      -1
    x3363     __OBJ___  39
    x3363     C11       -1
    x3363     C103      -1
    x3363     C121      -1
    x3363     C259      -1
    x3386     __OBJ___  90
    x3386     C6        -1
    x3386     C36       -1
    x3386     C84       -1
    x3386     C295      -1
    x3386     C330      -1
    x3406     __OBJ___  61
    x3406     C3        -1
    x3406     C31       -1
    x3406     C195      -1
    x3406     C294      -1
    x3408     __OBJ___  52
    x3408     C81       -1
    x3408     C274      -1
    x3408     C298      -1
    x3416     __OBJ___  1
    x3416     C237      -1
    x3416     C280      -1
    x3416     C363      -1
    x3416     C366      -1
    x3425     __OBJ___  36
    x3425     C12       -1
    x3425     C251      -1
    x3428     __OBJ___  33
    x3428     C245      -1
    x3428     C383      -1
    x3471     __OBJ___  31
    x3471     C34       -1
    x3471     C42       -1
    x3471     C145      -1
    x3473     __OBJ___  14
    x3473     C171      -1
    x3473     C332      -1
    x3473     C342      -1
    x3473     C371      -1
    x3511     __OBJ___  20
    x3511     C181      -1
    x3511     C182      -1
    x3511     C202      -1
    x3593     __OBJ___  8
    x3593     C188      -1
    x3593     C228      -1
    x3593     C282      -1
    x3593     C399      -1
    x3619     __OBJ___  52
    x3619     C188      -1
    x3619     C270      -1
    x3619     C334      -1
    x3619     C396      -1
    x3627     __OBJ___  51
    x3627     C96       -1
    x3627     C238      -1
    x3627     C308      -1
    x3627     C319      -1
    x3627     C328      -1
    x3677     __OBJ___  31
    x3677     C140      -1
    x3677     C171      -1
    x3677     C231      -1
    x3677     C342      -1
    x3677     C357      -1
    x3677     C364      -1
    x3703     __OBJ___  13
    x3703     C3        -1
    x3703     C366      -1
    x3709     __OBJ___  87
    x3709     C63       -1
    x3709     C98       -1
    x3709     C152      -1
    x3727     __OBJ___  5
    x3727     C191      -1
    x3727     C348      -1
    x3819     __OBJ___  17
    x3819     C2        -1
    x3819     C353      -1
    x3826     __OBJ___  42
    x3826     C2        -1
    x3826     C73       -1
    x3826     C169      -1
    x3826     C308      -1
    x3826     C310      -1
    x3847     __OBJ___  20
    x3847     C36       -1
    x3847     C273      -1
    x3847     C332      -1
    x3852     __OBJ___  36
    x3852     C34       -1
    x3852     C231      -1
    x3852     C239      -1
    x3890     __OBJ___  10
    x3890     C85       -1
    x3890     C181      -1
    x3890     C243      -1
    x3890     C246      -1
    x3890     C251      -1
    x3949     __OBJ___  35
    x3949     C33       -1
    x3949     C36       -1
    x3949     C276      -1
    x3949     C395      -1
    x3987     __OBJ___  29
    x3987     C14       -1
    x4027     __OBJ___  13
    x4027     C100      -1
    x4027     C103      -1
    x4027     C175      -1
    x4132     __OBJ___  17
    x4132     C153      -1
    x4132     C357      -1
    x4132     C384      -1
    x4338     __OBJ___  28
    x4338     C55       -1
    x4338     C358      -1
    x4350     __OBJ___  3
    x4350     C172      -1
    x4350     C237      -1
    x4350     C379      -1
    x4396     __OBJ___  8
    x4396     C90       -1
    x4396     C171      -1
    x4438     __OBJ___  4
    x4438     C38       -1
    x4458     __OBJ___  18
    x4458     C128      -1
    x4458     C198      -1
    x4458     C238      -1
    x4458     C386      -1
    x4510     __OBJ___  149
    x4510     C128      -1
    x4510     C314      -1
    x4510     C358      -1
    x4510     C369      -1
    x4519     __OBJ___  12
    x4519     C293      -1
    x4519     C384      -1
    x4559     __OBJ___  2
    x4559     C111      -1
    x4559     C296      -1
    x4559     C343      -1
    x4578     __OBJ___  1
    x4578     C89       -1
    x4578     C90       -1
    x4578     C181      -1
    x4589     __OBJ___  10
    x4589     C38       -1
    x4589     C78       -1
    x4589     C111      -1
    x4589     C139      -1
    x4589     C145      -1
    x4589     C175      -1
    x4589     C218      -1
    x4614     __OBJ___  35
    x4614     C108      -1
    x4614     C175      -1
    x4614     C283      -1
    x4614     C315      -1
    x4614     C376      -1
    x4634     __OBJ___  55
    x4634     C133      -1
    x4634     C197      -1
    x4634     C260      -1
    x4661     __OBJ___  6
    x4661     C228      -1
    x4661     C308      -1
    x4661     C351      -1
    x4752     __OBJ___  73
    x4752     C69       -1
    x4752     C105      -1
    x4752     C312      -1
    x4752     C397      -1
    x4781     __OBJ___  26
    x4781     C173      -1
    x4781     C349      -1
    x4808     __OBJ___  23
    x4808     C226      -1
    x4808     C279      -1
    x4847     __OBJ___  68
    x4847     C42       -1
    x4847     C77       -1
    x4847     C161      -1
    x4847     C197      -1
    x4855     __OBJ___  8
    x4855     C164      -1
    x4855     C319      -1
    x4855     C339      -1
    x4856     __OBJ___  9
    x4856     C161      -1
    x4856     C175      -1
    x4856     C363      -1
    x4939     __OBJ___  104
    x4939     C75       -1
    x4939     C273      -1
    x4939     C298      -1
    x4939     C312      -1
    x4942     __OBJ___  33
    x4942     C171      -1
    x4942     C187      -1
    x4942     C202      -1
    x4942     C358      -1
    x5014     __OBJ___  69
    x5014     C19       -1
    x5014     C53       -1
    x5014     C232      -1
    x5014     C276      -1
    x5054     __OBJ___  26
    x5054     C32       -1
    x5054     C293      -1
    x5054     C343      -1
    x5090     __OBJ___  7
    x5090     C247      -1
    x5090     C386      -1
    x5126     __OBJ___  6
    x5126     C145      -1
    x5160     __OBJ___  63
    x5160     C12       -1
    x5160     C88       -1
    x5237     __OBJ___  31
    x5237     C215      -1
    x5237     C245      -1
    x5239     __OBJ___  57
    x5239     C55       -1
    x5239     C152      -1
    x5239     C371      -1
    x5262     __OBJ___  63
    x5262     C42       -1
    x5262     C127      -1
    x5262     C144      -1
    x5262     C349      -1
    x5282     __OBJ___  53
    x5282     C51       -1
    x5282     C126      -1
    x5317     __OBJ___  161
    x5317     C40       -1
    x5317     C75       -1
    x5317     C228      -1
    x5317     C369      -1
    x5380     __OBJ___  4
    x5380     C81       -1
    x5380     C378      -1
    x5399     __OBJ___  56
    x5399     C22       -1
    x5399     C81       -1
    x5399     C218      -1
    x5424     __OBJ___  61
    x5424     C80       -1
    x5424     C128      -1
    x5424     C338      -1
    x5437     __OBJ___  20
    x5437     C115      -1
    x5437     C301      -1
    x5437     C346      -1
    x5458     __OBJ___  30
    x5458     C82       -1
    x5458     C104      -1
    x5458     C345      -1
    x5467     __OBJ___  37
    x5467     C88       -1
    x5467     C97       -1
    x5467     C366      -1
    x5470     __OBJ___  59
    x5470     C32       -1
    x5470     C43       -1
    x5470     C139      -1
    x5470     C153      -1
    x5470     C326      -1
    x5470     C387      -1
    x5519     __OBJ___  34
    x5519     C12       -1
    x5519     C36       -1
    x5519     C38       -1
    x5519     C128      -1
    x5519     C280      -1
    x5529     __OBJ___  53
    x5529     C2        -1
    x5529     C26       -1
    x5529     C43       -1
    x5534     __OBJ___  6
    x5534     C156      -1
    x5534     C314      -1
    x5534     C347      -1
    x5553     __OBJ___  110
    x5553     C88       -1
    x5553     C117      -1
    x5553     C295      -1
    x5595     __OBJ___  127
    x5595     C30       -1
    x5595     C159      -1
    x5595     C162      -1
    x5595     C175      -1
    x5595     C369      -1
    x5598     __OBJ___  16
    x5598     C11       -1
    x5598     C26       -1
    x5598     C169      -1
    x5598     C198      -1
    x5598     C301      -1
    x5598     C358      -1
    x5615     __OBJ___  20
    x5615     C61       -1
    x5615     C178      -1
    x5615     C237      -1
    x5628     __OBJ___  65
    x5628     C6        -1
    x5628     C376      -1
    x5628     C399      -1
    x5655     __OBJ___  42
    x5655     C63       -1
    x5655     C162      -1
    x5655     C195      -1
    x5655     C293      -1
    x5655     C301      -1
    x5713     __OBJ___  41
    x5713     C32       -1
    x5713     C82       -1
    x5731     __OBJ___  32
    x5731     C78       -1
    x5731     C294      -1
    x5772     __OBJ___  90
    x5772     C95       -1
    x5772     C100      -1
    x5772     C121      -1
    x5772     C126      -1
    x5772     C331      -1
    x5777     __OBJ___  16
    x5777     C65       -1
    x5777     C77       -1
    x5777     C347      -1
    x5807     __OBJ___  73
    x5807     C334      -1
    x5807     C338      -1
    x5832     __OBJ___  70
    x5832     C43       -1
    x5832     C102      -1
    x5832     C162      -1
    x5832     C249      -1
    x5832     C355      -1
    x5832     C379      -1
    x5843     __OBJ___  26
    x5843     C115      -1
    x5843     C248      -1
    x5877     __OBJ___  54
    x5877     C33       -1
    x5877     C334      -1
    x5879     __OBJ___  7
    x5879     C78       -1
    x5879     C89       -1
    x5879     C303      -1
    x5908     __OBJ___  49
    x5908     C26       -1
    x5908     C152      -1
    x5908     C334      -1
    x5943     __OBJ___  40
    x5943     C51       -1
    x5943     C80       -1
    x5943     C393      -1
    x5978     __OBJ___  19
    x5978     C58       -1
    x5978     C319      -1
    x5984     __OBJ___  20
    x5984     C80       -1
    x5984     C83       -1
    x5984     C98       -1
    x5984     C178      -1
    x6005     __OBJ___  53
    x6005     C22       -1
    x6005     C63       -1
    x6005     C296      -1
    x6012     __OBJ___  66
    x6012     C30       -1
    x6012     C298      -1
    x6077     __OBJ___  4
    x6077     C65       -1
    x6077     C371      -1
    x6077     C395      -1
    x6077     C396      -1
    x6126     __OBJ___  1
    x6126     C215      -1
    x6126     C257      -1
    x6141     __OBJ___  30
    x6141     C104      -1
    x6141     C205      -1
    x6141     C247      -1
    x6141     C312      -1
    x6141     C390      -1
    x6143     __OBJ___  25
    x6143     C19       -1
    x6143     C139      -1
    x6143     C249      -1
    x6152     __OBJ___  1
    x6152     C264      -1
    x6152     C342      -1
    x6152     C354      -1
    x6165     __OBJ___  71
    x6165     C6        -1
    x6165     C235      -1
    x6165     C249      -1
    x6165     C346      -1
    x6174     __OBJ___  36
    x6174     C27       -1
    x6174     C40       -1
    x6174     C108      -1
    x6174     C305      -1
    x6174     C397      -1
    x6194     __OBJ___  6
    x6194     C226      -1
    x6194     C363      -1
    x6204     __OBJ___  52
    x6204     C32       -1
    x6204     C73       -1
    x6204     C125      -1
    x6204     C296      -1
    x6322     __OBJ___  5
    x6322     C42       -1
    x6322     C353      -1
    x6343     __OBJ___  20
    x6343     C239      -1
    x6343     C248      -1
    x6345     __OBJ___  51
    x6345     C232      -1
    x6345     C345      -1
    x6345     C346      -1
    x6350     __OBJ___  64
    x6350     C65       -1
    x6350     C197      -1
    x6350     C244      -1
    x6350     C281      -1
    x6350     C399      -1
    x6394     __OBJ___  60
    x6394     C167      -1
    x6394     C175      -1
    x6394     C279      -1
    x6394     C318      -1
    MARKER    'MARKER'                 'INTEND'
RHS
    RHS       __OBJ___  -846
    RHS       C0        -1
    RHS       C2        -1
    RHS       C3        -1
    RHS       C6        -1
    RHS       C7        -1
    RHS       C11       -1
    RHS       C12       -1
    RHS       C14       -1
    RHS       C19       -1
    RHS       C22       -1
    RHS       C26       -1
    RHS       C27       -1
    RHS       C30       -1
    RHS       C31       -1
    RHS       C32       -1
    RHS       C33       -1
    RHS       C34       -1
    RHS       C36       -1
    RHS       C38       -1
    RHS       C40       -1
    RHS       C42       -1
    RHS       C43       -1
    RHS       C47       -1
    RHS       C48       -1
    RHS       C51       -1
    RHS       C53       -1
    RHS       C55       -1
    RHS       C58       -1
    RHS       C61       -1
    RHS       C63       -1
    RHS       C65       -1
    RHS       C68       -1
    RHS       C69       -1
    RHS       C70       -1
    RHS       C73       -1
    RHS       C74       -1
    RHS       C75       -1
    RHS       C77       -1
    RHS       C78       -1
    RHS       C80       -1
    RHS       C81       -1
    RHS       C82       -1
    RHS       C83       -1
    RHS       C84       -1
    RHS       C85       -1
    RHS       C86       -1
    RHS       C87       -1
    RHS       C88       -1
    RHS       C89       -1
    RHS       C90       -1
    RHS       C95       -1
    RHS       C96       -1
    RHS       C97       -1
    RHS       C98       -1
    RHS       C99       -1
    RHS       C100      -1
    RHS       C102      -1
    RHS       C103      -1
    RHS       C104      -1
    RHS       C105      -1
    RHS       C108      -1
    RHS       C109      -1
    RHS       C111      -1
    RHS       C113      -1
    RHS       C115      -1
    RHS       C117      -1
    RHS       C121      -1
    RHS       C125      -1
    RHS       C126      -1
    RHS       C127      -1
    RHS       C128      -1
    RHS       C133      -1
    RHS       C139      -1
    RHS       C140      -1
    RHS       C141      -1
    RHS       C144      -1
    RHS       C145      -1
    RHS       C152      -1
    RHS       C153      -1
    RHS       C156      -1
    RHS       C159      -1
    RHS       C161      -1
    RHS       C162      -1
    RHS       C164      -1
    RHS       C167      -1
    RHS       C169      -1
    RHS       C171      -1
    RHS       C172      -1
    RHS       C173      -1
    RHS       C175      -1
    RHS       C178      -1
    RHS       C180      -1
    RHS       C181      -1
    RHS       C182      -1
    RHS       C186      -1
    RHS       C187      -1
    RHS       C188      -1
    RHS       C191      -1
    RHS       C195      -1
    RHS       C196      -1
    RHS       C197      -1
    RHS       C198      -1
    RHS       C201      -1
    RHS       C202      -1
    RHS       C205      -1
    RHS       C213      -1
    RHS       C215      -1
    RHS       C216      -1
    RHS       C218      -1
    RHS       C221      -1
    RHS       C226      -1
    RHS       C228      -1
    RHS       C231      -1
    RHS       C232      -1
    RHS       C235      -1
    RHS       C237      -1
    RHS       C238      -1
    RHS       C239      -1
    RHS       C240      -1
    RHS       C243      -1
    RHS       C244      -1
    RHS       C245      -1
    RHS       C246      -1
    RHS       C247      -1
    RHS       C248      -1
    RHS       C249      -1
    RHS       C251      -1
    RHS       C256      -1
    RHS       C257      -1
    RHS       C259      -1
    RHS       C260      -1
    RHS       C264      -1
    RHS       C270      -1
    RHS       C273      -1
    RHS       C274      -1
    RHS       C276      -1
    RHS       C278      -1
    RHS       C279      -1
    RHS       C280      -1
    RHS       C281      -1
    RHS       C282      -1
    RHS       C283      -1
    RHS       C290      -1
    RHS       C292      -1
    RHS       C293      -1
    RHS       C294      -1
    RHS       C295      -1
    RHS       C296      -1
    RHS       C298      -1
    RHS       C301      -1
    RHS       C303      -1
    RHS       C305      -1
    RHS       C308      -1
    RHS       C309      -1
    RHS       C310      -1
    RHS       C312      -1
    RHS       C314      -1
    RHS       C315      -1
    RHS       C318      -1
    RHS       C319      -1
    RHS       C320      -1
    RHS       C326      -1
    RHS       C328      -1
    RHS       C330      -1
    RHS       C331      -1
    RHS       C332      -1
    RHS       C334      -1
    RHS       C338      -1
    RHS       C339      -1
    RHS       C342      -1
    RHS       C343      -1
    RHS       C344      -1
    RHS       C345      -1
    RHS       C346      -1
    RHS       C347      -1
    RHS       C348      -1
    RHS       C349      -1
    RHS       C351      -1
    RHS       C353      -1
    RHS       C354      -1
    RHS       C355      -1
    RHS       C357      -1
    RHS       C358      -1
    RHS       C361      -1
    RHS       C363      -1
    RHS       C364      -1
    RHS       C366      -1
    RHS       C369      -1
    RHS       C370      -1
    RHS       C371      -1
    RHS       C373      -1
    RHS       C374      -1
    RHS       C375      -1
    RHS       C376      -1
    RHS       C378      -1
    RHS       C379      -1
    RHS       C383      -1
    RHS       C384      -1
    RHS       C386      -1
    RHS       C387      -1
    RHS       C390      -1
    RHS       C393      -1
    RHS       C395      -1
    RHS       C396      -1
    RHS       C397      -1
    RHS       C398      -1
    RHS       C399      -1
BOUNDS
 UP BOUND     x114      1
 UP BOUND     x126      1
 UP BOUND     x136      1
 UP BOUND     x153      1
 UP BOUND     x186      1
 UP BOUND     x223      1
 UP BOUND     x240      1
 UP BOUND     x267      1
 UP BOUND     x273      1
 UP BOUND     x280      1
 UP BOUND     x351      1
 UP BOUND     x362      1
 UP BOUND     x364      1
 UP BOUND     x386      1
 UP BOUND     x388      1
 UP BOUND     x393      1
 UP BOUND     x409      1
 UP BOUND     x431      1
 UP BOUND     x458      1
 UP BOUND     x486      1
 UP BOUND     x495      1
 UP BOUND     x506      1
 UP BOUND     x625      1
 UP BOUND     x627      1
 UP BOUND     x638      1
 UP BOUND     x645      1
 UP BOUND     x655      1
 UP BOUND     x673      1
 UP BOUND     x744      1
 UP BOUND     x767      1
 UP BOUND     x784      1
 UP BOUND     x785      1
 UP BOUND     x800      1
 UP BOUND     x850      1
 UP BOUND     x891      1
 UP BOUND     x898      1
 UP BOUND     x979      1
 UP BOUND     x987      1
 UP BOUND     x1012     1
 UP BOUND     x1037     1
 UP BOUND     x1046     1
 UP BOUND     x1077     1
 UP BOUND     x1123     1
 UP BOUND     x1146     1
 UP BOUND     x1151     1
 UP BOUND     x1155     1
 UP BOUND     x1186     1
 UP BOUND     x1266     1
 UP BOUND     x1292     1
 UP BOUND     x1304     1
 UP BOUND     x1412     1
 UP BOUND     x1436     1
 UP BOUND     x1441     1
 UP BOUND     x1446     1
 UP BOUND     x1458     1
 UP BOUND     x1478     1
 UP BOUND     x1495     1
 UP BOUND     x1531     1
 UP BOUND     x1533     1
 UP BOUND     x1559     1
 UP BOUND     x1697     1
 UP BOUND     x1743     1
 UP BOUND     x1829     1
 UP BOUND     x1856     1
 UP BOUND     x1886     1
 UP BOUND     x1892     1
 UP BOUND     x1917     1
 UP BOUND     x1960     1
 UP BOUND     x2070     1
 UP BOUND     x2106     1
 UP BOUND     x2109     1
 UP BOUND     x2140     1
 UP BOUND     x2154     1
 UP BOUND     x2178     1
 UP BOUND     x2190     1
 UP BOUND     x2194     1
 UP BOUND     x2195     1
 UP BOUND     x2277     1
 UP BOUND     x2308     1
 UP BOUND     x2312     1
 UP BOUND     x2325     1
 UP BOUND     x2326     1
 UP BOUND     x2334     1
 UP BOUND     x2392     1
 UP BOUND     x2429     1
 UP BOUND     x2433     1
 UP BOUND     x2446     1
 UP BOUND     x2451     1
 UP BOUND     x2489     1
 UP BOUND     x2523     1
 UP BOUND     x2559     1
 UP BOUND     x2607     1
 UP BOUND     x2617     1
 UP BOUND     x2632     1
 UP BOUND     x2638     1
 UP BOUND     x2680     1
 UP BOUND     x2712     1
 UP BOUND     x2751     1
 UP BOUND     x2765     1
 UP BOUND     x2785     1
 UP BOUND     x2788     1
 UP BOUND     x2837     1
 UP BOUND     x2876     1
 UP BOUND     x2897     1
 UP BOUND     x2928     1
 UP BOUND     x2943     1
 UP BOUND     x2955     1
 UP BOUND     x3026     1
 UP BOUND     x3080     1
 UP BOUND     x3123     1
 UP BOUND     x3145     1
 UP BOUND     x3214     1
 UP BOUND     x3216     1
 UP BOUND     x3217     1
 UP BOUND     x3254     1
 UP BOUND     x3273     1
 UP BOUND     x3347     1
 UP BOUND     x3363     1
 UP BOUND     x3386     1
 UP BOUND     x3406     1
 UP BOUND     x3408     1
 UP BOUND     x3416     1
 UP BOUND     x3425     1
 UP BOUND     x3428     1
 UP BOUND     x3471     1
 UP BOUND     x3473     1
 UP BOUND     x3511     1
 UP BOUND     x3593     1
 UP BOUND     x3619     1
 UP BOUND     x3627     1
 UP BOUND     x3677     1
 UP BOUND     x3703     1
 UP BOUND     x3709     1
 UP BOUND     x3727     1
 UP BOUND     x3819     1
 UP BOUND     x3826     1
 UP BOUND     x3847     1
 UP BOUND     x3852     1
 UP BOUND     x3890     1
 UP BOUND     x3949     1
 UP BOUND     x3987     1
 UP BOUND     x4027     1
 UP BOUND     x4132     1
 UP BOUND     x4338     1
 UP BOUND     x4350     1
 UP BOUND     x4396     1
 UP BOUND     x4438     1
 UP BOUND     x4458     1
 UP BOUND     x4510     1
 UP BOUND     x4519     1
 UP BOUND     x4559     1
 UP BOUND     x4578     1
 UP BOUND     x4589     1
 UP BOUND     x4614     1
 UP BOUND     x4634     1
 UP BOUND     x4661     1
 UP BOUND     x4752     1
 UP BOUND     x4781     1
 UP BOUND     x4808     1
 UP BOUND     x4847     1
 UP BOUND     x4855     1
 UP BOUND     x4856     1
 UP BOUND     x4939     1
 UP BOUND     x4942     1
 UP BOUND     x5014     1
 UP BOUND     x5054     1
 UP BOUND     x5090     1
 UP BOUND     x5126     1
 UP BOUND     x5160     1
 UP BOUND     x5237     1
 UP BOUND     x5239     1
 UP BOUND     x5262     1
 UP BOUND     x5282     1
 UP BOUND     x5317     1
 UP BOUND     x5380     1
 UP BOUND     x5399     1
 UP BOUND     x5424     1
 UP BOUND     x5437     1
 UP BOUND     x5458     1
 UP BOUND     x5467     1
 UP BOUND     x5470     1
 UP BOUND     x5519     1
 UP BOUND     x5529     1
 UP BOUND     x5534     1
 UP BOUND     x5553     1
 UP BOUND     x5595     1
 UP BOUND     x5598     1
 UP BOUND     x5615     1
 UP BOUND     x5628     1
 UP BOUND     x5655     1
 UP BOUND     x5713     1
 UP BOUND     x5731     1
 UP BOUND     x5772     1
 UP BOUND     x5777     1
 UP BOUND     x5807     1
 UP BOUND     x5832     1
 UP BOUND     x5843     1
 UP BOUND     x5877     1
 UP BOUND     x5879     1
 UP BOUND     x5908     1
 UP BOUND     x5943     1
 UP BOUND     x5978     1
 UP BOUND     x5984     1
 UP BOUND     x6005     1
 UP BOUND     x6012     1
 UP BOUND     x6077     1
 UP BOUND     x6126     1
 UP BOUND     x6141     1
 UP BOUND     x6143     1
 UP BOUND     x6152     1
 UP BOUND     x6165     1
 UP BOUND     x6174     1
 UP BOUND     x6194     1
 UP BOUND     x6204     1
 UP BOUND     x6322     1
 UP BOUND     x6343     1
 UP BOUND     x6345     1
 UP BOUND     x6350     1
 UP BOUND     x6394     1
ENDATA
